c NeuroCodeBench 2.0 CNF formula with verdict Unsat
p cnf 69 201
-1 57 -8 61 -44 55 0
-1 -57 -64 -18 -31 -36 22 58 0
-1 -57 -64 -18 31 -50 -33 56 -38 0
-1 57 -8 61 44 14 -64 0
-1 57 -8 61 44 14 64 0
1 69 -31 -44 68 47 15 -21 -50 51 0
1 69 -31 -44 68 -47 65 -67 43 3 22 0
1 69 -31 -44 -68 -61 -26 63 0
-1 -57 -64 18 52 46 -14 0
-1 -57 -64 18 52 -46 -36 33 -41 0
-1 -57 -64 -18 31 -50 33 -52 29 -22 36 -48 0
-1 -57 -64 -18 -31 36 -65 53 62 46 0
1 -69 -65 -7 -63 40 -64 33 0
-1 -57 -64 -18 31 -50 33 52 7 -43 6 67 0
-1 57 8 15 48 17 3 0
1 -69 -65 7 63 -35 38 -8 0
-1 -57 -64 -18 -31 36 65 -23 46 -17 38 0
-1 -57 64 24 -13 15 -20 17 -59 0
-1 -57 -64 -18 -31 -36 -22 -61 -38 46 0
-1 -57 -64 -18 -31 36 -65 53 62 -46 0
-1 57 8 -15 -39 -54 0
1 -69 -65 -7 63 -62 28 0
-1 -57 -64 -18 31 50 -51 -9 -25 -55 22 0
-1 -57 -64 -18 31 50 -51 9 -27 3 39 0
1 69 -31 -44 -68 -61 -26 -63 0
1 -69 -65 -7 -63 -40 54 29 0
-1 -57 64 -24 2 -44 -20 0
-1 57 -8 -61 44 -34 49 -12 31 -2 0
1 69 31 -44 6 0
1 -69 -65 7 -63 26 0
-1 57 8 -15 39 66 0
-1 -57 64 -24 -2 -17 -22 18 0
-1 -57 -64 18 52 -46 -36 33 41 59 0
1 69 -31 -44 -68 -61 26 -59 -58 0
1 69 -31 -44 -68 -61 26 -59 58 62 0
1 69 -31 -44 68 47 15 21 0
-1 -57 -64 18 52 -46 36 62 0
-1 -57 -64 18 -52 -54 42 -12 47 -24 0
-1 57 8 15 -48 0
-1 57 -8 -61 44 34 -51 47 31 -10 0
1 69 -31 -44 68 -47 65 67 -23 -52 -59 0
-1 -57 64 24 -13 -15 -9 68 0
-1 -57 -64 -18 31 50 -51 -9 -25 -55 -22 0
-1 57 -8 -61 -44 31 -16 0
-1 -57 -64 -18 31 -50 33 52 7 43 45 0
1 69 -31 44 -32 -40 -45 20 -67 0
-1 -57 -64 -18 -31 -36 -22 -61 38 0
-1 -57 -64 -18 -31 -36 22 -58 -6 48 0
1 69 -31 44 -32 -40 45 0
-1 -57 -64 18 -52 -54 -42 -20 69 0
1 69 -31 -44 68 -47 -65 -59 43 -18 0
-1 -57 -64 -18 31 50 -51 9 -27 3 -39 0
-1 -57 -64 -18 31 50 -51 9 27 32 0
-1 -57 -64 18 -52 54 13 0
-1 -57 -64 -18 -31 36 65 -23 46 17 -51 0
-1 -57 -64 -18 -31 36 65 23 0
-1 57 -8 -61 44 34 -51 47 31 10 0
-1 57 -8 -61 44 -34 49 -12 31 2 0
-1 -57 64 -24 -2 17 0
1 -69 -65 7 63 -35 38 8 11 0
1 69 -31 -44 -68 -61 26 -59 58 -62 0
-1 -57 -64 18 52 -46 36 -62 0
-1 57 -8 -61 44 34 51 0
-1 57 -8 -61 -44 31 16 0
1 69 -31 -44 68 -47 65 -67 -43 0
-1 -57 -64 -18 -31 -36 22 -58 -6 -48 0
-1 -57 -64 18 -52 -54 42 12 0
1 -69 -65 7 63 -35 38 8 -11 3 0
1 -69 -65 -7 -63 -40 54 -29 0
-1 -57 -64 -18 31 50 -51 -9 -25 55 -27 0
-1 -57 -64 -18 31 -50 33 52 -7 0
-1 -57 64 24 -13 15 20 -47 0
1 69 -31 -44 68 -47 65 -67 43 3 -22 0
-1 -57 -64 -18 -31 -36 -22 -61 -38 -46 0
-1 -57 -64 -18 31 50 -51 9 27 -32 -39 -26 0
1 69 -31 44 32 29 0
-1 57 -8 61 -44 -55 -43 0
-1 -57 64 -24 2 44 0
1 -69 -65 -7 -63 -40 -54 0
-1 -57 64 24 -13 15 -20 17 59 0
-1 -57 64 -24 -2 -17 22 0
1 -69 -65 -7 -63 40 64 0
1 -69 -65 -7 -63 40 -64 -33 0
-1 -57 64 24 -13 15 20 47 0
1 69 -31 -44 68 -47 65 67 23 0
1 69 -31 -44 68 -47 -65 59 0
-1 -57 -64 -18 31 -50 33 -52 29 -22 36 48 -26 0
-1 57 -8 -61 44 34 -51 -47 -10 0
1 -69 -65 -7 63 62 -11 0
-1 -57 64 24 -13 15 -20 -17 0
-1 -57 64 24 13 46 36 0
1 -69 -65 7 -63 -26 33 -35 0
1 -69 65 -33 0
1 69 -31 -44 68 -47 65 67 -23 52 0
-1 -57 -64 18 -52 54 -13 -65 0
-1 -57 64 -24 2 -44 20 -35 27 3 -34 0
1 69 31 -44 -6 53 0
-1 -57 -64 -18 31 -50 33 52 7 -43 -6 42 0
1 69 -31 -44 68 -47 -65 -59 -43 -24 -40 0
1 69 -31 -44 68 47 -15 0
1 69 -31 -44 -68 -61 26 59 6 0
1 69 -31 -44 68 -47 65 67 -23 -52 59 0
-1 -57 -64 -18 31 -50 -33 56 38 -44 -24 0
1 69 -31 -44 68 -47 65 -67 43 -3 0
1 69 -31 44 -32 40 -27 0
-1 -57 -64 -18 -31 36 -65 -53 0
-1 -57 -64 -18 -31 36 65 -23 -46 0
-1 57 -8 -61 44 34 -51 -47 10 0
1 -69 65 33 0
1 -69 -65 7 63 35 -14 0
1 69 -31 -44 68 -47 -65 -59 43 18 0
-1 -57 -64 18 -52 54 -13 65 0
-1 -57 -64 -18 31 -50 -33 56 38 44 0
1 69 -31 -44 68 -47 -65 -59 -43 24 0
-1 57 8 15 48 17 -3 0
-1 -57 -64 18 -52 -54 -42 20 40 0
-1 -57 -64 -18 -31 36 65 -23 46 -17 -38 0
-1 -57 -64 -18 31 -50 33 52 7 -43 -6 -42 -24 0
1 69 -31 -44 68 47 15 -21 50 -36 0
-1 -57 -64 -18 31 -50 -33 56 38 -44 24 0
-1 -57 -64 -18 31 -50 33 52 7 43 -45 0
-1 57 8 15 48 -17 0
-1 -57 64 24 -13 -15 -9 -68 0
1 69 31 44 0
-1 57 -8 61 -44 -55 43 0
-1 -57 -64 18 -52 -54 42 -12 -47 0
-1 -57 -64 -18 31 50 -51 9 -27 -3 -41 0
-1 -57 64 -24 2 -44 20 -35 27 -3 0
-1 -57 -64 -18 31 50 -51 9 27 -32 -39 26 0
-1 -57 -64 -18 31 50 -51 -9 25 0
1 69 -31 -44 68 47 15 -21 -50 -51 0
-1 57 -8 -61 44 -34 49 12 -11 -27 0
-1 -57 -64 -18 31 50 -51 9 -27 -3 41 0
-1 -57 -64 18 -52 -54 -42 20 -40 0
-1 -57 -64 -18 31 -50 33 52 7 -43 -6 -42 24 0
-1 57 -8 -61 44 34 -51 47 -31 -49 0
-1 -57 64 24 -13 -15 9 0
-1 57 -8 61 44 -14 0
-1 -57 64 -24 2 -44 20 -35 27 3 34 0
-1 57 -8 -61 44 -34 49 -12 -31 0
1 -69 -65 7 63 -35 -38 -50 0
-1 -57 -64 -18 -31 36 65 -23 46 17 51 0
-1 -57 -64 -18 -31 36 -65 53 -62 12 0
-1 57 8 -15 -39 54 -49 0
-1 -57 -64 -18 31 50 -51 9 27 -32 39 0
1 69 -31 -44 -68 61 -24 0
-1 -57 -64 18 52 -46 -36 -33 49 0
-1 -57 -64 -18 31 -50 33 -52 29 -22 36 48 26 0
-1 -57 64 24 13 -46 52 -25 0
-1 -57 -64 -18 31 50 -51 -9 -25 55 27 0
1 -69 -65 -7 63 -62 -28 0
1 -69 -65 7 63 35 14 64 0
1 69 -31 -44 68 -47 -65 -59 -43 -24 40 0
-1 -57 -64 -18 -31 -36 -22 61 0
-1 -57 -64 18 52 -46 -36 -33 -49 0
-1 -57 -64 18 52 46 14 8 0
-1 -57 -64 -18 31 -50 -33 -56 -8 0
1 69 -31 -44 -68 61 24 0
1 69 -31 -44 -68 -61 26 59 -6 0
-1 -57 -64 -18 -31 36 -65 53 -62 -12 -32 0
1 69 -31 44 -32 -40 -45 20 67 0
-1 57 -8 -61 44 -34 49 12 11 0
-1 57 -8 -61 44 -34 -49 0
-1 -57 -64 -18 -31 36 -65 53 -62 -12 32 0
1 69 -31 44 -32 -40 -45 -20 0
-1 -57 64 24 13 -46 -52 30 0
-1 -57 -64 18 52 46 14 -8 0
-1 -57 64 -24 2 -44 20 -35 -27 0
-1 -57 -64 -18 31 50 51 63 0
-1 -57 -64 -18 31 -50 33 52 7 -43 6 -67 0
1 -69 -65 7 -63 -26 -33 40 0
-1 -57 -64 18 -52 -54 -42 -20 -69 0
-1 -57 -64 18 52 -46 -36 33 41 -59 0
-1 57 -8 -61 -44 -31 0
-1 -57 64 24 13 -46 52 25 0
-1 -57 -64 -18 -31 -36 22 -58 6 0
1 69 -31 44 -32 40 27 0
-1 -57 64 -24 -2 -17 -22 -18 0
-1 -57 64 -24 2 -44 20 35 55 0
-1 -57 -64 -18 31 -50 33 -52 29 -22 -36 0
-1 -57 64 24 13 46 -36 0
1 -69 -65 7 63 -35 38 8 -11 -3 0
-1 -57 64 -24 2 -44 20 35 -55 0
-1 57 -8 -61 44 34 -51 47 -31 49 0
-1 -57 -64 -18 31 50 51 -63 0
1 -69 -65 7 -63 -26 -33 -40 0
-1 57 8 -15 -39 54 49 0
1 -69 -65 -7 63 62 11 0
1 69 -31 44 32 -29 0
1 69 -31 -44 68 47 15 -21 50 36 0
1 69 31 -44 -6 -53 0
-1 -57 -64 -18 31 -50 -33 -56 8 0
-1 -57 64 24 13 -46 -52 -30 0
-1 57 -8 -61 44 -34 49 12 -11 27 0
1 -69 -65 7 63 35 14 -64 0
-1 57 8 -15 39 -66 0
1 -69 -65 7 63 -35 -38 50 0
1 -69 -65 7 -63 -26 33 35 0
-1 -57 -64 18 -52 -54 42 -12 47 24 0
-1 -57 -64 -18 31 -50 33 -52 29 22 0
-1 -57 -64 -18 31 -50 33 -52 -29 0
